NAME model
ROWS
 N  OBJ
 G  R0      
 G  R1      
 G  R2      
 G  R3      
 G  R4      
 G  R5      
 E  R6      
 E  R7      
 E  R8      
 E  R9      
 E  R10     
 E  R11     
 L  R12     
 L  R13     
 L  R14     
 L  R15     
 L  R16     
 L  R17     
COLUMNS
    x_Index_0_s0_d1  R0        1
    x_Index_0_s0_d1  R6        1
    x_Index_0_s0_d1  R12       1
    x_Index_0_s0_d2  R1        1
    x_Index_0_s0_d2  R7        1
    x_Index_0_s0_d2  R13       1
    x_Index_0_s1_d2  R2        1
    x_Index_0_s1_d2  R8        1
    x_Index_0_s1_d2  R15       1
    x_Index_0_s1_d0  R3        1
    x_Index_0_s1_d0  R9        1
    x_Index_0_s1_d0  R14       1
    x_Index_0_s2_d0  R4        1
    x_Index_0_s2_d0  R10       1
    x_Index_0_s2_d0  R16       1
    x_Index_0_s2_d1  R5        1
    x_Index_0_s2_d1  R11       1
    x_Index_0_s2_d1  R17       1
    z         OBJ       1
    z         R12       -30
    z         R13       -30
    z         R14       -30
    z         R15       -30
    z         R16       -30
    z         R17       -30
RHS
    RHS1      R6        5
BOUNDS
ENDATA
